Route #1:
Route #2: 5 20
Route #3: 30
Route #4: 24
Route #5: 7 1 18
Route #6: 9 28
Route #7: 13 3
Route #8: 27
Route #9: 11 16
Route #10: 14 25 10 23 8 15 22 31
Route #11: 4 2 19 17 6
Route #12: 12
Route #13: 21 26 29

Cost: 2069.148972059961
